NAME : ch130
TYPE : TOUR
DIMMENSION : 130
SOLUTION : 6866.803208619486
TOUR_SECTION(72 - 98)
(98 - 72)
(72 - 73)
(73 - 74)
(74 - 51)
(51 - 8)
(8 - 56)
(56 - 55)
(55 - 64)
(64 - 102)
(102 - 76)
(76 - 80)
(80 - 86)
(86 - 11)
(11 - 94)
(94 - 78)
(78 - 115)
(115 - 23)
(23 - 14)
(14 - 28)
(28 - 88)
(88 - 93)
(93 - 109)
(109 - 97)
(97 - 67)
(67 - 62)
(62 - 69)
(69 - 96)
(96 - 25)
(25 - 6)
(6 - 87)
(87 - 68)
(68 - 63)
(63 - 85)
(85 - 123)
(123 - 128)
(128 - 60)
(60 - 108)
(108 - 75)
(75 - 10)
(10 - 4)
(4 - 44)
(44 - 15)
(15 - 127)
(127 - 104)
(104 - 61)
(61 - 111)
(111 - 116)
(116 - 38)
(38 - 70)
(70 - 40)
(40 - 0)
(0 - 129)
(129 - 49)
(49 - 1)
(1 - 117)
(117 - 79)
(79 - 45)
(45 - 19)
(19 - 34)
(34 - 53)
(53 - 16)
(16 - 30)
(30 - 33)
(33 - 26)
(26 - 18)
(18 - 99)
(99 - 42)
(42 - 103)
(103 - 106)
(106 - 126)
(126 - 47)
(47 - 24)
(24 - 31)
(31 - 112)
(112 - 35)
(35 - 83)
(83 - 118)
(118 - 110)
(110 - 122)
(122 - 100)
(100 - 81)
(81 - 91)
(91 - 37)
(37 - 105)
(105 - 57)
(57 - 48)
(48 - 52)
(52 - 119)
(119 - 59)
(59 - 50)
(50 - 41)
(41 - 43)
(43 - 39)
(39 - 46)
(46 - 36)
(36 - 21)
(21 - 22)
(22 - 121)
(121 - 54)
(54 - 13)
(13 - 9)
(9 - 66)
(66 - 95)
(95 - 12)
(12 - 32)
(32 - 20)
(20 - 17)
(17 - 7)
(7 - 107)
(107 - 113)
(113 - 2)
(2 - 82)
(82 - 29)
(29 - 58)
(58 - 120)
(120 - 77)
(77 - 89)
(89 - 124)
(124 - 84)
(84 - 65)
(65 - 27)
(27 - 114)
(114 - 125)
(125 - 92)
(92 - 3)
(3 - 71)
(71 - 90)
(90 - 5)
-1
EOF
